PROBLEM NAME: eil51_n7
KNAPSACK DATA TYPE: uncorrelated
DIMENSION: 7
NUMBER OF ITEMS: 6
CAPACITY OF KNAPSACK: 1624
MIN SPEED: 0.1
MAX SPEED: 1
RENTING RATIO: 4.64
EDGE_WEIGHT_TYPE: CEIL_2D
NODE_COORD_SECTION	(INDEX, X, Y):
1	42	57
2	7	38
3	30	48
4	45	35
5	5	6
6	56	37
7	30	40
ITEMS SECTION	(INDEX, PROFIT, WEIGHT, ASSIGNED NODE NUMBER):
1	790	280	3
2	773	586	7
3	682	337	2
4	652	486	5
5	488	354	4
6	111	936	6
